Name: EasyAcademy3
Courses: 145
Rooms: 65
Days: 5
Periods_per_day: 11
Curricula: 65
Constraints: 3207

COURSES:
c160 t155 3 1 30
c163 t8 6 3 300
c165 t9 6 3 300
c166 t319 6 2 30
c167 t10 6 2 100
c168 t11 6 2 40
c169 t320 6 2 30
c170 t12 6 2 50
c171 t123 2 1 60
c172 t151 2 1 60
c173 t341 2 1 60
c174 t134 2 1 60
c179 t321 6 3 100
c180 t13 6 2 30
c181 t14 6 2 60
c182 t15 6 2 20
c183 t16 6 2 20
c184 t17 6 2 30
c185 t18 6 3 40
c186 t19 6 2 20
c187 t20 6 3 30
cU1 t18 6 3 150
cU4 t21 6 3 80
c192 t23 6 3 80
c193 t24 6 3 50
c194 t25 6 3 300
cU3 t26 6 3 120
c196 t27 6 2 30
c197 t28 6 3 450
c199 t29 6 3 300
c200 t30 6 3 250
c201 t31 6 2 20
c202 t32 6 3 40
c203 t33 6 2 90
c204 t21 6 3 350
c205 t34 6 3 40
c206 t35 6 2 40
c207 t36 6 3 200
c208 t37 6 3 150
c209 t38 4 2 200
c210 t39 4 2 200
c211 t40 4 2 200
c212 t23 4 2 200
c213 t322 6 2 40
c214 t41 6 3 60
c216 t139 1 1 10
c217 t138 1 1 10
c218 t138 4 2 80
c219 t138 4 2 80
c220 t138 4 2 70
c221 t123 2 1 70
c222 t43 4 2 100
c223 t130 2 1 50
c224 t130 2 1 50
c225 t43 4 2 100
c226 t130 1 1 10
c227 t130 1 1 10
c228 t44 4 2 60
c229 t145 2 1 30
c230 t145 2 1 30
c231 t111 4 2 60
c232 t145 2 1 30
c233 t145 2 1 30
c234 t44 2 1 80
c235 t145 4 2 80
c236 t112 4 2 20
c237 t123 2 1 20
c238 t45 4 2 20
c239 t123 2 1 20
c240 t43 3 1 20
c241 t133 3 1 20
c242 t44 3 1 10
c243 t133 3 1 10
c244 t46 4 2 5
c245 t131 2 1 5
c246 t131 2 1 5
c247 t134 2 1 100
c248 t142 4 2 65
c249 t142 1 1 10
c250 t134 1 1 10
c251 t142 1 1 10
c252 t46 4 2 60
c253 t318 2 1 40
c254 t318 2 1 40
c255 t46 4 2 60
c256 t131 2 1 40
c257 t142 2 1 70
c258 t134 4 2 70
c259 t324 5 1 40
c260 t28 6 3 60
c261 t47 6 3 280
c262 t140 1 1 10
c263 t48 6 3 60
c264 t47 6 2 10
c265 t325 5 1 50
c266 t49 6 3 80
c267 t50 6 3 200
c269 t51 6 3 140
c270 t52 6 2 60
c271 t53 6 3 120
c272 t16 6 2 60
c273 t326 6 3 100
c274 t54 6 3 350
c275 t55 6 3 350
c277 t327 6 3 70
c278 t54 6 2 80
c279 t57 6 3 300
c282 t59 6 2 20
cU2 t58 6 3 450
c284 t60 6 3 400
c285 t61 6 3 150
c286 t33 6 3 150
c287 t62 6 2 100
c288 t63 6 3 25
c289 t13 6 3 120
c291 t64 6 3 450
c292 t65 6 2 450
c293 t66 6 2 20
c294 t61 6 3 180
c295 t67 6 3 210
c296 t328 6 2 90
c297 t31 6 2 75
c298 t68 6 2 11
c299 t69 6 2 50
c300 t70 6 3 300
c301 t71 6 3 300
c303 t72 6 3 230
c304 t70 6 3 150
c305 t73 6 3 400
c306 t74 6 2 200
c307 t55 6 2 50
c308 t75 6 2 30
c309 t75 6 2 90
c310 t76 6 3 90
c311 t77 6 3 30
c312 t78 6 3 400
c313 t24 6 2 15
c314 t79 6 2 50
c315 t80 6 2 30
c325 t82 6 2 70
c1647 t138 4 2 60
c1648 t139 2 1 60
c1649 t139 2 1 80
c1650 t139 2 1 80
c1651 t134 4 2 5

ROOMS:
r14 130
r15 116
r16 147
r17 0
r151 0
r19 112
r20 96
r21 43
r22 40
r23 40
r24 40
r25 40
r26 142
r27 147
r28 30
r29 30
r30 30
r31 30
r32 112
r33 96
r34 43
r18 72
r44 250
r46 150
r35 168
r36 160
r131 174
r37 126
r132 180
r38 250
r39 194
r40 160
r41 312
r42 30
r43 250
r45 150
r48 350
r49 100
r50 178
r51 80
r133 178
r52 247
r53 208
r130 34
r54 86
r55 286
r129 240
r56 286
r148 250
r149 150
r57 454
r58 448
r60 477
r61 240
r62 37
r63 40
r59 84
r47 150
r64 302
r65 61
r66 52
r67 250
r68 158
r69 106
r70 68

CURRICULA:
cu228 5 c213 c265 c278 c293 c314
cu229 5 c213 c265 c278 c313 c314
cu244 3 c181 c206 c296
cu245 3 c181 c296 c298
cu246 3 c181 c282 c296
cu247 3 c181 c296 c299
cu273 6 c207 c208 c266 c287 c288 c289
cu274 6 c207 c208 c287 c288 c289 c291
cu275 6 c207 c208 c287 c288 c289 c294
cu276 1 c179
cu277 1 c202
cu278 1 c273
cu279 1 cU2
cu280 1 c311
cu284 1 c303
cu286 1 c205
cu288 3 cU3 cU2 c295
cu290 3 cU2 cU4 c295
cu292 3 cU2 c193 c295
cu293 3 cU2 c185 c295
cu294 3 cU2 c186 c295
cu295 3 cU2 c187 c295
cu296 3 cU2 c192 c295
cu320 3 c181 c196 c296
cu321 3 c181 c278 c296
cu362 6 c214 c234 c235 c260 c263 c309
cu363 6 c214 c234 c235 c263 c269 c309
cu364 6 c214 c234 c235 c263 c309 c310
cu365 6 c214 c257 c258 c260 c263 c309
cu366 6 c214 c257 c258 c263 c269 c309
cu367 6 c214 c257 c258 c263 c309 c310
cu387 2 c259 c303
cu388 2 c307 c315
cu389 5 c180 c201 c203 c270 c297
cu390 4 c180 c203 c270 c297
cu391 5 c180 c203 c270 c277 c297
cu392 6 c199 c200 c285 c286 c300 c301
cu393 3 c267 c271 c306
cu394 3 cU1 c267 c306
cu395 5 c194 c204 c211 c212 c279
cu399 10 c163 c165 c171 c216 c217 c261 c262 c292 c1647 c1648
cu400 13 c163 c165 c172 c173 c222 c223 c224 c225 c226 c227 c261 c262 c292
cu401 11 c163 c165 c174 c247 c248 c249 c250 c251 c261 c262 c292
cu402 6 c214 c220 c221 c260 c263 c309
cu403 6 c214 c220 c221 c263 c269 c309
cu404 6 c214 c220 c221 c263 c309 c310
cu405 1 c269
cu408 1 c304
cu409 6 c163 c209 c210 c284 c305 c312
cu410 6 c165 c209 c210 c284 c305 c312
cu418 4 c160 c167 c170 c308
cu419 4 c160 c167 c170 c264
cu420 6 c160 c167 c170 c184 c246 c1651
cu421 6 c160 c167 c170 c183 c238 c239
cu422 6 c160 c167 c170 c184 c242 c243
cu423 7 c197 c218 c219 c274 c275 c1649 c1650
cu424 9 c197 c228 c229 c230 c231 c232 c233 c274 c275
cu425 8 c197 c252 c253 c254 c255 c256 c274 c275
cu426 3 c166 c272 c325
cu427 3 c168 c272 c325
cu428 3 c169 c272 c325
cu429 3 c182 c272 c325
cu430 4 c236 c237 c272 c325
cu431 4 c240 c241 c272 c325
cu432 4 c244 c245 c272 c325

UNAVAILABILITY_CONSTRAINTS:
c163 0 0
c163 0 1
c163 0 2
c163 0 3
c163 0 4
c163 1 0
c163 2 0
c163 3 0
c163 3 1
c163 3 2
c163 3 3
c163 3 4
c163 3 5
c163 3 6
c163 3 7
c163 3 8
c163 3 9
c163 4 0
c163 4 1
c163 4 2
c163 4 3
c163 4 4
c163 4 5
c163 4 6
c163 4 7
c163 4 8
c163 4 9
c165 0 0
c165 0 1
c165 0 2
c165 0 3
c165 0 4
c165 1 0
c165 2 0
c165 3 0
c165 3 1
c165 3 2
c165 3 3
c165 3 4
c165 3 5
c165 3 6
c165 3 7
c165 3 8
c165 3 9
c165 4 0
c165 4 1
c165 4 2
c165 4 3
c165 4 4
c165 4 5
c165 4 6
c165 4 7
c165 4 8
c165 4 9
c167 0 0
c167 0 1
c167 0 2
c167 0 3
c167 0 4
c167 0 5
c167 0 6
c167 0 7
c167 0 8
c167 0 9
c167 1 0
c167 1 1
c167 1 2
c167 1 3
c167 1 4
c167 1 5
c167 1 6
c167 1 7
c167 2 0
c167 2 1
c168 0 0
c168 1 0
c168 2 0
c168 3 0
c168 4 0
c169 0 0
c169 0 1
c169 0 2
c169 0 3
c169 0 4
c169 0 5
c169 0 6
c169 0 7
c169 0 8
c169 0 9
c169 0 10
c169 1 0
c169 1 1
c169 1 2
c169 1 3
c169 1 4
c169 1 5
c169 1 6
c169 1 7
c169 1 8
c169 1 9
c169 2 0
c169 2 1
c169 3 0
c169 3 1
c170 0 0
c170 0 1
c170 0 2
c170 0 3
c170 0 4
c170 0 5
c170 0 6
c170 0 7
c170 0 8
c170 0 9
c170 1 0
c170 1 1
c170 1 2
c170 1 3
c170 1 4
c170 1 5
c170 1 6
c170 1 7
c170 1 8
c170 1 9
c170 2 0
c170 2 8
c170 2 9
c170 2 10
c170 3 0
c170 4 0
c171 0 8
c171 0 9
c171 3 8
c171 3 9
c171 4 8
c171 4 9
c173 0 0
c173 0 1
c173 0 2
c173 0 3
c173 0 4
c173 0 5
c173 0 6
c173 0 7
c173 0 8
c173 0 9
c173 3 0
c173 3 1
c173 3 2
c173 3 3
c173 3 4
c173 3 5
c173 3 6
c173 3 7
c173 3 8
c173 3 9
c173 4 0
c173 4 1
c173 4 2
c173 4 3
c173 4 4
c173 4 5
c173 4 6
c173 4 7
c173 4 8
c173 4 9
c174 2 2
c174 2 3
c174 2 4
c174 2 5
c174 2 6
c174 2 7
c174 2 8
c174 2 9
c174 4 0
c174 4 1
c174 4 2
c174 4 3
c174 4 4
c174 4 5
c174 4 6
c174 4 7
c174 4 8
c174 4 9
c179 0 0
c179 0 1
c179 0 2
c179 0 3
c179 0 4
c179 0 5
c179 0 6
c179 1 0
c179 1 1
c179 1 2
c179 1 3
c179 1 4
c179 1 5
c179 1 6
c179 2 0
c179 2 1
c179 2 2
c179 2 3
c179 2 4
c179 2 5
c179 2 6
c179 3 0
c179 3 1
c179 3 2
c179 3 3
c179 3 4
c179 3 5
c179 3 6
c179 4 0
c179 4 1
c179 4 2
c179 4 3
c179 4 4
c179 4 5
c179 4 6
c180 0 0
c180 0 1
c180 0 2
c180 0 3
c180 0 4
c180 0 5
c180 0 6
c180 0 7
c180 0 8
c180 0 9
c180 1 9
c180 2 9
c180 3 9
c180 4 5
c180 4 6
c180 4 7
c180 4 8
c180 4 9
c181 0 0
c181 0 1
c181 0 2
c181 1 0
c181 1 1
c181 1 2
c181 1 3
c181 1 4
c181 1 5
c181 2 0
c181 3 0
c181 3 1
c181 3 2
c181 3 3
c181 4 0
c182 0 0
c182 0 1
c182 0 2
c182 0 3
c182 0 4
c182 3 2
c182 3 3
c182 4 0
c182 4 1
c182 4 2
c182 4 6
c182 4 7
c182 4 8
c182 4 9
c182 4 10
c183 0 0
c183 0 1
c183 0 3
c183 0 5
c183 0 7
c183 1 2
c183 1 4
c183 1 6
c183 2 0
c183 2 2
c183 2 5
c183 3 0
c183 3 2
c183 4 1
c183 4 2
c183 4 5
c183 4 7
c184 0 1
c184 0 2
c184 0 3
c184 0 4
c184 0 5
c184 0 6
c184 0 7
c184 0 8
c184 4 0
c184 4 1
c184 4 2
c184 4 3
c184 4 4
c184 4 5
c184 4 6
c184 4 7
c184 4 8
c184 4 9
c185 0 0
c185 0 1
c185 0 8
c185 0 9
c185 1 0
c185 1 1
c185 1 8
c185 1 9
c185 2 0
c185 2 1
c185 2 8
c185 2 9
c185 3 0
c185 3 1
c185 3 2
c185 3 3
c185 3 4
c185 3 5
c185 3 6
c185 3 7
c185 3 8
c185 3 9
c185 4 0
c185 4 1
c185 4 2
c185 4 3
c185 4 4
c185 4 5
c185 4 6
c185 4 7
c185 4 8
c185 4 9
c186 0 0
c186 0 1
c186 0 2
c186 0 3
c186 0 4
c186 0 5
c186 1 0
c186 1 1
c186 1 2
c186 1 3
c186 1 4
c186 1 5
c186 2 0
c186 2 1
c186 2 2
c186 2 3
c186 2 4
c186 2 5
c186 3 0
c186 3 1
c186 3 2
c186 3 3
c186 3 4
c186 3 5
c186 3 6
c186 3 7
c186 3 8
c186 3 9
c186 4 0
c186 4 1
c186 4 2
c186 4 3
c186 4 4
c186 4 5
c186 4 6
c186 4 7
c186 4 8
c186 4 9
c187 0 8
c187 0 9
c187 1 8
c187 1 9
c187 2 8
c187 2 9
c187 3 0
c187 3 1
c187 3 2
c187 3 3
c187 3 4
c187 3 5
c187 3 6
c187 3 7
c187 3 8
c187 3 9
c187 4 0
c187 4 1
c187 4 2
c187 4 3
c187 4 4
c187 4 5
c187 4 6
c187 4 7
c187 4 8
c187 4 9
cU1 0 0
cU1 0 1
cU1 0 8
cU1 0 9
cU1 0 10
cU1 1 0
cU1 1 1
cU1 1 8
cU1 1 9
cU1 1 10
cU1 2 0
cU1 2 1
cU1 2 8
cU1 2 9
cU1 2 10
cU1 3 0
cU1 3 1
cU1 3 2
cU1 3 3
cU1 3 4
cU1 3 5
cU1 3 6
cU1 3 7
cU1 3 8
cU1 3 9
cU1 4 0
cU1 4 1
cU1 4 2
cU1 4 3
cU1 4 4
cU1 4 5
cU1 4 6
cU1 4 7
cU1 4 8
cU1 4 9
cU4 0 0
cU4 0 9
cU4 0 10
cU4 1 0
cU4 1 9
cU4 1 10
cU4 2 0
cU4 2 9
cU4 2 10
cU4 3 0
cU4 3 1
cU4 3 2
cU4 3 3
cU4 3 4
cU4 3 5
cU4 3 6
cU4 3 7
cU4 3 8
cU4 3 9
cU4 4 0
cU4 4 1
cU4 4 2
cU4 4 3
cU4 4 4
cU4 4 5
cU4 4 6
cU4 4 7
cU4 4 8
cU4 4 9
c192 3 0
c192 3 1
c192 3 2
c192 3 3
c192 3 4
c192 3 5
c192 3 6
c192 3 7
c192 3 8
c192 3 9
c192 4 0
c192 4 1
c192 4 2
c192 4 3
c192 4 4
c192 4 5
c192 4 6
c192 4 7
c192 4 8
c192 4 9
c193 0 9
c193 0 10
c193 1 9
c193 1 10
c193 2 9
c193 2 10
c193 3 0
c193 3 1
c193 3 2
c193 3 3
c193 3 4
c193 3 5
c193 3 6
c193 3 7
c193 3 8
c193 3 9
c193 3 10
c193 4 0
c193 4 1
c193 4 2
c193 4 3
c193 4 4
c193 4 5
c193 4 6
c193 4 7
c193 4 8
c193 4 9
c193 4 10
c194 0 0
c194 0 1
c194 0 2
c194 0 3
c194 0 4
c194 0 5
c194 1 0
c194 1 1
c194 1 2
c194 1 3
c194 1 4
c194 1 5
c194 2 0
c194 2 1
c194 2 2
c194 2 3
c194 2 4
c194 2 5
c194 3 0
c194 3 1
c194 3 2
c194 3 3
c194 3 4
c194 3 5
c194 3 6
c194 3 7
c194 3 8
c194 3 9
c194 4 0
c194 4 1
c194 4 2
c194 4 3
c194 4 4
c194 4 5
c194 4 6
c194 4 7
c194 4 8
c194 4 9
cU3 0 0
cU3 0 4
cU3 0 5
cU3 0 6
cU3 0 7
cU3 1 0
cU3 2 0
cU3 3 0
cU3 3 1
cU3 3 2
cU3 3 3
cU3 3 4
cU3 3 5
cU3 3 6
cU3 3 7
cU3 3 8
cU3 3 9
cU3 4 0
cU3 4 1
cU3 4 2
cU3 4 3
cU3 4 4
cU3 4 5
cU3 4 6
cU3 4 7
cU3 4 8
cU3 4 9
c196 0 3
c196 0 4
c196 0 5
c196 0 6
c196 0 7
c196 0 8
c196 0 9
c196 1 3
c196 1 4
c196 1 5
c196 1 6
c196 1 7
c196 1 8
c196 1 9
c196 2 3
c196 2 4
c196 2 5
c196 2 6
c196 2 7
c196 2 8
c196 2 9
c196 3 7
c196 3 8
c196 3 9
c196 4 3
c196 4 4
c196 4 5
c196 4 6
c196 4 7
c196 4 8
c196 4 9
c197 0 8
c197 0 9
c197 1 8
c197 1 9
c197 2 8
c197 2 9
c197 3 8
c197 3 9
c197 4 0
c197 4 1
c197 4 2
c197 4 3
c197 4 4
c197 4 5
c197 4 6
c197 4 7
c197 4 8
c197 4 9
c199 0 0
c199 0 7
c199 0 9
c199 1 0
c199 1 7
c199 1 9
c199 2 0
c199 2 7
c199 3 0
c199 3 2
c199 3 7
c199 4 0
c199 4 2
c199 4 5
c199 4 7
c200 0 0
c200 0 1
c200 0 4
c200 0 9
c200 1 0
c200 1 1
c200 1 4
c200 1 9
c200 2 0
c200 2 1
c200 2 4
c200 2 9
c200 3 0
c200 3 1
c200 3 4
c200 4 0
c200 4 1
c200 4 4
c201 2 0
c201 2 1
c201 2 2
c201 2 3
c201 2 4
c201 2 5
c201 2 6
c201 2 7
c201 2 8
c201 2 9
c201 3 0
c201 3 1
c201 3 2
c201 3 3
c201 3 4
c201 3 5
c201 3 6
c201 3 7
c201 3 8
c201 3 9
c201 4 0
c201 4 1
c201 4 2
c201 4 3
c201 4 4
c201 4 5
c201 4 6
c201 4 7
c201 4 8
c201 4 9
c202 0 0
c202 0 1
c202 0 2
c202 0 3
c202 1 0
c202 1 1
c202 2 0
c202 2 1
c202 3 0
c202 3 1
c202 4 0
c202 4 1
c202 4 4
c202 4 5
c202 4 6
c202 4 7
c202 4 8
c202 4 9
c203 0 6
c203 0 7
c203 0 8
c203 0 9
c203 1 0
c203 1 1
c203 1 2
c203 1 3
c203 1 4
c203 1 5
c203 1 6
c203 1 7
c203 1 8
c203 1 9
c203 3 6
c203 3 7
c203 3 8
c203 3 9
c203 4 3
c203 4 4
c203 4 5
c203 4 6
c203 4 7
c203 4 8
c203 4 9
c204 3 0
c204 3 1
c204 3 2
c204 3 3
c204 3 4
c204 3 5
c204 3 6
c204 3 7
c204 3 8
c204 3 9
c204 4 0
c204 4 1
c204 4 2
c204 4 3
c204 4 4
c204 4 5
c204 4 6
c204 4 7
c204 4 8
c204 4 9
c205 0 0
c205 0 1
c205 0 2
c205 0 3
c205 0 4
c205 0 5
c205 0 6
c205 0 7
c205 0 8
c205 0 9
c205 1 8
c205 2 8
c205 3 8
c205 4 8
c206 0 0
c206 0 1
c206 0 2
c206 0 3
c206 0 4
c206 2 5
c206 2 6
c206 2 7
c206 2 8
c206 4 0
c206 4 1
c206 4 2
c206 4 3
c206 4 4
c206 4 5
c206 4 6
c206 4 7
c206 4 8
c207 0 0
c207 0 1
c207 0 8
c207 0 9
c207 1 0
c207 1 1
c207 1 4
c207 1 5
c207 2 0
c207 2 1
c207 3 0
c207 3 1
c207 3 4
c207 3 5
c207 4 0
c207 4 1
c207 4 8
c207 4 9
c208 0 4
c208 0 5
c208 0 8
c208 0 9
c208 1 4
c208 1 5
c208 1 8
c208 1 9
c208 2 4
c208 2 5
c208 2 8
c208 2 9
c208 3 4
c208 3 5
c208 3 8
c208 3 9
c208 4 4
c208 4 5
c209 1 0
c209 1 1
c209 1 2
c209 1 3
c209 1 4
c209 1 5
c209 1 6
c209 1 7
c209 1 8
c209 1 9
c209 3 0
c209 3 1
c209 3 2
c209 3 3
c209 3 4
c209 3 5
c209 3 6
c209 3 7
c209 3 8
c209 3 9
c209 4 0
c209 4 1
c209 4 2
c209 4 3
c209 4 4
c209 4 5
c209 4 6
c209 4 7
c209 4 8
c209 4 9
c210 3 0
c210 3 1
c210 3 2
c210 3 3
c210 3 4
c210 3 5
c210 3 6
c210 3 7
c210 3 8
c210 3 9
c210 4 0
c210 4 1
c210 4 2
c210 4 3
c210 4 4
c210 4 5
c210 4 6
c210 4 7
c210 4 8
c210 4 9
c211 0 0
c211 0 1
c211 0 2
c211 0 3
c211 1 2
c211 1 3
c211 1 6
c211 1 7
c211 1 8
c211 1 9
c211 2 0
c211 2 1
c211 2 2
c211 2 3
c211 3 0
c211 3 1
c211 3 2
c211 3 3
c211 3 4
c211 3 5
c211 3 6
c211 3 7
c211 3 8
c211 3 9
c211 4 0
c211 4 1
c211 4 2
c211 4 3
c211 4 4
c211 4 5
c211 4 6
c211 4 7
c211 4 8
c211 4 9
c212 3 0
c212 3 1
c212 3 2
c212 3 3
c212 3 4
c212 3 5
c212 3 6
c212 3 7
c212 3 8
c212 3 9
c212 4 0
c212 4 1
c212 4 2
c212 4 3
c212 4 4
c212 4 5
c212 4 6
c212 4 7
c212 4 8
c212 4 9
c213 0 0
c213 0 1
c213 0 2
c213 0 3
c213 1 6
c213 1 7
c213 1 8
c213 1 9
c213 1 10
c213 2 6
c213 2 7
c213 2 8
c213 2 9
c213 2 10
c214 0 5
c214 0 6
c214 0 7
c214 0 8
c214 0 9
c214 1 5
c214 1 6
c214 1 7
c214 1 8
c214 1 9
c214 2 5
c214 2 6
c214 2 7
c214 2 8
c214 2 9
c214 3 5
c214 3 6
c214 3 7
c214 3 8
c214 3 9
c214 4 5
c214 4 6
c214 4 7
c214 4 8
c214 4 9
c216 0 0
c216 0 1
c216 0 8
c216 0 9
c216 1 0
c216 1 1
c216 1 2
c216 1 3
c216 1 4
c216 1 5
c216 1 6
c216 1 7
c216 1 8
c216 1 9
c216 2 0
c216 2 1
c216 2 8
c216 2 9
c216 3 0
c216 3 1
c216 3 2
c216 3 3
c216 3 4
c216 3 5
c216 3 6
c216 3 7
c216 3 8
c216 3 9
c216 4 0
c216 4 1
c216 4 2
c216 4 3
c216 4 4
c216 4 5
c216 4 6
c216 4 7
c216 4 8
c216 4 9
c217 0 0
c217 0 1
c217 0 8
c217 0 9
c217 1 0
c217 1 1
c217 1 8
c217 1 9
c217 2 0
c217 2 1
c217 2 8
c217 2 9
c217 3 0
c217 3 1
c217 3 8
c217 3 9
c217 4 0
c217 4 1
c217 4 8
c217 4 9
c218 0 0
c218 0 1
c218 0 8
c218 0 9
c218 1 0
c218 1 1
c218 1 8
c218 1 9
c218 2 0
c218 2 1
c218 2 8
c218 2 9
c218 3 0
c218 3 1
c218 3 8
c218 3 9
c218 4 0
c218 4 1
c218 4 8
c218 4 9
c219 0 0
c219 0 1
c219 0 8
c219 0 9
c219 1 0
c219 1 1
c219 1 8
c219 1 9
c219 2 0
c219 2 1
c219 2 8
c219 2 9
c219 3 0
c219 3 1
c219 3 8
c219 3 9
c219 4 0
c219 4 1
c219 4 8
c219 4 9
c220 0 0
c220 0 1
c220 0 8
c220 0 9
c220 1 0
c220 1 1
c220 1 8
c220 1 9
c220 2 0
c220 2 1
c220 2 8
c220 2 9
c220 3 0
c220 3 1
c220 3 8
c220 3 9
c220 4 0
c220 4 1
c220 4 8
c220 4 9
c221 0 8
c221 0 9
c221 3 8
c221 3 9
c221 4 8
c221 4 9
c222 0 0
c222 0 1
c222 1 0
c222 1 1
c222 1 2
c222 1 3
c222 1 4
c222 1 5
c222 1 6
c222 1 7
c222 1 8
c222 1 9
c222 2 0
c222 2 1
c222 3 0
c222 3 1
c222 3 8
c222 3 9
c222 4 0
c222 4 1
c223 0 6
c223 0 7
c223 0 8
c223 0 9
c223 1 6
c223 1 7
c223 1 8
c223 1 9
c223 2 0
c223 2 1
c223 2 2
c223 2 3
c223 2 4
c223 2 5
c223 2 6
c223 2 7
c223 2 8
c223 2 9
c223 3 0
c223 3 1
c223 3 2
c223 3 3
c223 3 4
c223 3 5
c223 3 6
c223 3 7
c223 3 8
c223 3 9
c223 4 6
c223 4 7
c223 4 8
c223 4 9
c224 0 6
c224 0 7
c224 0 8
c224 0 9
c224 1 6
c224 1 7
c224 1 8
c224 1 9
c224 2 0
c224 2 1
c224 2 2
c224 2 3
c224 2 4
c224 2 5
c224 2 6
c224 2 7
c224 2 8
c224 2 9
c224 3 0
c224 3 1
c224 3 2
c224 3 3
c224 3 4
c224 3 5
c224 3 6
c224 3 7
c224 3 8
c224 3 9
c224 4 6
c224 4 7
c224 4 8
c224 4 9
c225 0 0
c225 0 1
c225 1 0
c225 1 1
c225 1 2
c225 1 3
c225 1 4
c225 1 5
c225 1 6
c225 1 7
c225 1 8
c225 1 9
c225 2 0
c225 2 1
c225 3 0
c225 3 1
c225 3 8
c225 3 9
c225 4 0
c225 4 1
c226 0 6
c226 0 7
c226 0 8
c226 0 9
c226 1 6
c226 1 7
c226 1 8
c226 1 9
c226 2 0
c226 2 1
c226 2 2
c226 2 3
c226 2 4
c226 2 5
c226 2 6
c226 2 7
c226 2 8
c226 2 9
c226 3 0
c226 3 1
c226 3 2
c226 3 3
c226 3 4
c226 3 5
c226 3 6
c226 3 7
c226 3 8
c226 3 9
c226 4 6
c226 4 7
c226 4 8
c226 4 9
c227 0 6
c227 0 7
c227 0 8
c227 0 9
c227 1 6
c227 1 7
c227 1 8
c227 1 9
c227 2 0
c227 2 1
c227 2 2
c227 2 3
c227 2 4
c227 2 5
c227 2 6
c227 2 7
c227 2 8
c227 2 9
c227 3 0
c227 3 1
c227 3 2
c227 3 3
c227 3 4
c227 3 5
c227 3 6
c227 3 7
c227 3 8
c227 3 9
c227 4 6
c227 4 7
c227 4 8
c227 4 9
c228 0 0
c228 0 1
c228 0 2
c228 0 3
c228 0 4
c228 0 5
c228 0 6
c228 0 7
c228 0 8
c228 0 9
c228 4 2
c228 4 3
c228 4 4
c228 4 5
c228 4 6
c228 4 7
c228 4 8
c228 4 9
c229 0 0
c229 0 1
c229 0 2
c229 0 3
c229 0 4
c229 0 5
c229 0 6
c229 0 7
c229 0 8
c229 0 9
c229 1 0
c229 1 1
c229 1 8
c229 1 9
c229 2 0
c229 2 1
c229 2 8
c229 2 9
c229 3 0
c229 3 1
c229 3 8
c229 3 9
c229 4 0
c229 4 1
c229 4 2
c229 4 3
c229 4 4
c229 4 5
c229 4 6
c229 4 7
c229 4 8
c229 4 9
c230 0 0
c230 0 1
c230 0 2
c230 0 3
c230 0 4
c230 0 5
c230 0 6
c230 0 7
c230 0 8
c230 0 9
c230 1 0
c230 1 1
c230 1 8
c230 1 9
c230 2 0
c230 2 1
c230 2 8
c230 2 9
c230 3 0
c230 3 1
c230 3 8
c230 3 9
c230 4 0
c230 4 1
c230 4 2
c230 4 3
c230 4 4
c230 4 5
c230 4 6
c230 4 7
c230 4 8
c230 4 9
c231 0 0
c231 0 1
c231 0 2
c231 0 3
c231 0 4
c231 0 5
c231 0 6
c231 0 7
c231 0 8
c231 0 9
c231 1 0
c231 1 1
c231 1 2
c231 1 3
c231 1 4
c231 1 5
c231 2 4
c231 2 5
c231 2 6
c231 2 7
c231 2 8
c231 2 9
c231 3 4
c231 3 5
c231 3 6
c231 3 7
c231 3 8
c231 3 9
c231 4 0
c231 4 1
c231 4 2
c231 4 3
c231 4 4
c231 4 5
c231 4 6
c231 4 7
c231 4 8
c231 4 9
c232 0 0
c232 0 1
c232 0 2
c232 0 3
c232 0 4
c232 0 5
c232 0 6
c232 0 7
c232 0 8
c232 0 9
c232 1 0
c232 1 1
c232 1 8
c232 1 9
c232 2 0
c232 2 1
c232 2 8
c232 2 9
c232 3 0
c232 3 1
c232 3 8
c232 3 9
c232 4 0
c232 4 1
c232 4 2
c232 4 3
c232 4 4
c232 4 5
c232 4 6
c232 4 7
c232 4 8
c232 4 9
c233 0 0
c233 0 1
c233 0 2
c233 0 3
c233 0 4
c233 0 5
c233 0 6
c233 0 7
c233 0 8
c233 0 9
c233 1 0
c233 1 1
c233 1 8
c233 1 9
c233 2 0
c233 2 1
c233 2 8
c233 2 9
c233 3 0
c233 3 1
c233 3 8
c233 3 9
c233 4 0
c233 4 1
c233 4 2
c233 4 3
c233 4 4
c233 4 5
c233 4 6
c233 4 7
c233 4 8
c233 4 9
c234 0 0
c234 0 1
c234 0 2
c234 0 3
c234 0 4
c234 0 5
c234 0 6
c234 0 7
c234 0 8
c234 0 9
c234 4 2
c234 4 3
c234 4 4
c234 4 5
c234 4 6
c234 4 7
c234 4 8
c234 4 9
c235 0 0
c235 0 1
c235 0 2
c235 0 3
c235 0 4
c235 0 5
c235 0 6
c235 0 7
c235 0 8
c235 0 9
c235 1 0
c235 1 1
c235 1 8
c235 1 9
c235 2 0
c235 2 1
c235 2 8
c235 2 9
c235 3 0
c235 3 1
c235 3 8
c235 3 9
c235 4 0
c235 4 1
c235 4 2
c235 4 3
c235 4 4
c235 4 5
c235 4 6
c235 4 7
c235 4 8
c235 4 9
c236 0 0
c236 0 9
c236 1 0
c236 1 8
c236 1 9
c236 2 0
c236 2 8
c236 2 9
c236 3 0
c236 3 9
c236 4 0
c236 4 9
c237 0 8
c237 0 9
c237 3 8
c237 3 9
c237 4 8
c237 4 9
c238 0 4
c238 0 5
c238 1 4
c238 1 5
c238 2 4
c238 2 5
c238 3 4
c238 3 5
c238 4 4
c238 4 5
c239 0 8
c239 0 9
c239 3 8
c239 3 9
c239 4 8
c239 4 9
c240 0 0
c240 0 1
c240 1 0
c240 1 1
c240 1 2
c240 1 3
c240 1 4
c240 1 5
c240 1 6
c240 1 7
c240 1 8
c240 1 9
c240 2 0
c240 2 1
c240 3 0
c240 3 1
c240 3 8
c240 3 9
c240 4 0
c240 4 1
c241 0 0
c241 0 1
c241 0 2
c241 0 3
c241 0 8
c241 0 9
c241 1 0
c241 1 1
c241 1 2
c241 1 3
c241 1 4
c241 1 5
c241 1 6
c241 1 7
c241 1 8
c241 1 9
c241 2 0
c241 2 1
c241 2 2
c241 2 3
c241 2 8
c241 2 9
c241 3 0
c241 3 1
c241 3 2
c241 3 3
c241 3 4
c241 3 5
c241 3 6
c241 3 7
c241 3 8
c241 3 9
c241 4 0
c241 4 1
c241 4 2
c241 4 3
c241 4 4
c241 4 5
c241 4 6
c241 4 7
c241 4 8
c241 4 9
c242 0 0
c242 0 1
c242 0 2
c242 0 3
c242 0 4
c242 0 5
c242 0 6
c242 0 7
c242 0 8
c242 0 9
c242 4 2
c242 4 3
c242 4 4
c242 4 5
c242 4 6
c242 4 7
c242 4 8
c242 4 9
c243 0 0
c243 0 1
c243 0 2
c243 0 3
c243 0 8
c243 0 9
c243 1 0
c243 1 1
c243 1 2
c243 1 3
c243 1 4
c243 1 5
c243 1 6
c243 1 7
c243 1 8
c243 1 9
c243 2 0
c243 2 1
c243 2 2
c243 2 3
c243 2 8
c243 2 9
c243 3 0
c243 3 1
c243 3 2
c243 3 3
c243 3 4
c243 3 5
c243 3 6
c243 3 7
c243 3 8
c243 3 9
c243 4 0
c243 4 1
c243 4 2
c243 4 3
c243 4 4
c243 4 5
c243 4 6
c243 4 7
c243 4 8
c243 4 9
c244 3 0
c244 3 1
c244 3 2
c244 3 3
c244 3 4
c244 3 5
c244 3 6
c244 3 7
c244 3 8
c244 3 9
c244 4 0
c244 4 1
c244 4 2
c244 4 3
c244 4 4
c244 4 5
c244 4 6
c244 4 7
c244 4 8
c244 4 9
c245 0 3
c245 0 4
c245 0 5
c245 0 6
c245 0 7
c245 0 8
c245 0 9
c245 1 0
c245 1 1
c245 1 2
c245 1 3
c245 1 4
c245 1 5
c245 2 3
c245 2 4
c245 2 5
c245 2 6
c245 2 7
c245 2 8
c245 2 9
c245 3 3
c245 3 4
c245 3 5
c245 3 6
c245 3 7
c245 3 8
c245 3 9
c245 4 0
c245 4 1
c245 4 2
c245 4 3
c245 4 4
c245 4 5
c246 0 3
c246 0 4
c246 0 5
c246 0 6
c246 0 7
c246 0 8
c246 0 9
c246 1 0
c246 1 1
c246 1 2
c246 1 3
c246 1 4
c246 1 5
c246 2 3
c246 2 4
c246 2 5
c246 2 6
c246 2 7
c246 2 8
c246 2 9
c246 3 3
c246 3 4
c246 3 5
c246 3 6
c246 3 7
c246 3 8
c246 3 9
c246 4 0
c246 4 1
c246 4 2
c246 4 3
c246 4 4
c246 4 5
c247 2 2
c247 2 3
c247 2 4
c247 2 5
c247 2 6
c247 2 7
c247 2 8
c247 2 9
c247 4 0
c247 4 1
c247 4 2
c247 4 3
c247 4 4
c247 4 5
c247 4 6
c247 4 7
c247 4 8
c247 4 9
c248 0 4
c248 0 5
c248 0 6
c248 0 7
c248 0 8
c248 0 9
c248 1 0
c248 1 1
c248 1 2
c248 1 3
c248 1 4
c248 1 5
c248 1 6
c248 1 7
c248 1 8
c248 1 9
c248 2 0
c248 2 1
c248 2 2
c248 2 3
c248 2 4
c248 2 5
c248 2 6
c248 2 7
c248 2 8
c248 2 9
c249 0 4
c249 0 5
c249 0 6
c249 0 7
c249 0 8
c249 0 9
c249 1 0
c249 1 1
c249 1 2
c249 1 3
c249 1 4
c249 1 5
c249 1 6
c249 1 7
c249 1 8
c249 1 9
c249 2 0
c249 2 1
c249 2 2
c249 2 3
c249 2 4
c249 2 5
c249 2 6
c249 2 7
c249 2 8
c249 2 9
c250 2 2
c250 2 3
c250 2 4
c250 2 5
c250 2 6
c250 2 7
c250 2 8
c250 2 9
c250 4 0
c250 4 1
c250 4 2
c250 4 3
c250 4 4
c250 4 5
c250 4 6
c250 4 7
c250 4 8
c250 4 9
c251 0 4
c251 0 5
c251 0 6
c251 0 7
c251 0 8
c251 0 9
c251 1 0
c251 1 1
c251 1 2
c251 1 3
c251 1 4
c251 1 5
c251 1 6
c251 1 7
c251 1 8
c251 1 9
c251 2 0
c251 2 1
c251 2 2
c251 2 3
c251 2 4
c251 2 5
c251 2 6
c251 2 7
c251 2 8
c251 2 9
c252 3 0
c252 3 1
c252 3 2
c252 3 3
c252 3 4
c252 3 5
c252 3 6
c252 3 7
c252 3 8
c252 3 9
c252 4 0
c252 4 1
c252 4 2
c252 4 3
c252 4 4
c252 4 5
c252 4 6
c252 4 7
c252 4 8
c252 4 9
c253 0 0
c253 0 1
c253 0 6
c253 0 7
c253 0 8
c253 0 9
c253 1 4
c253 1 5
c253 1 6
c253 1 7
c253 1 8
c253 1 9
c253 2 4
c253 2 5
c253 2 6
c253 2 7
c253 2 8
c253 2 9
c253 3 0
c253 3 1
c253 3 2
c253 3 3
c253 3 4
c253 3 5
c253 3 6
c253 3 7
c253 3 8
c253 3 9
c253 4 0
c253 4 1
c253 4 2
c253 4 3
c253 4 4
c253 4 5
c253 4 6
c253 4 7
c253 4 8
c253 4 9
c254 0 0
c254 0 1
c254 0 6
c254 0 7
c254 0 8
c254 0 9
c254 1 4
c254 1 5
c254 1 6
c254 1 7
c254 1 8
c254 1 9
c254 2 4
c254 2 5
c254 2 6
c254 2 7
c254 2 8
c254 2 9
c254 3 0
c254 3 1
c254 3 2
c254 3 3
c254 3 4
c254 3 5
c254 3 6
c254 3 7
c254 3 8
c254 3 9
c254 4 0
c254 4 1
c254 4 2
c254 4 3
c254 4 4
c254 4 5
c254 4 6
c254 4 7
c254 4 8
c254 4 9
c255 3 0
c255 3 1
c255 3 2
c255 3 3
c255 3 4
c255 3 5
c255 3 6
c255 3 7
c255 3 8
c255 3 9
c255 4 0
c255 4 1
c255 4 2
c255 4 3
c255 4 4
c255 4 5
c255 4 6
c255 4 7
c255 4 8
c255 4 9
c256 0 3
c256 0 4
c256 0 5
c256 0 6
c256 0 7
c256 0 8
c256 0 9
c256 1 0
c256 1 1
c256 1 2
c256 1 3
c256 1 4
c256 1 5
c256 2 3
c256 2 4
c256 2 5
c256 2 6
c256 2 7
c256 2 8
c256 2 9
c256 3 3
c256 3 4
c256 3 5
c256 3 6
c256 3 7
c256 3 8
c256 3 9
c256 4 0
c256 4 1
c256 4 2
c256 4 3
c256 4 4
c256 4 5
c257 0 4
c257 0 5
c257 0 6
c257 0 7
c257 0 8
c257 0 9
c257 1 0
c257 1 1
c257 1 2
c257 1 3
c257 1 4
c257 1 5
c257 1 6
c257 1 7
c257 1 8
c257 1 9
c257 2 0
c257 2 1
c257 2 2
c257 2 3
c257 2 4
c257 2 5
c257 2 6
c257 2 7
c257 2 8
c257 2 9
c258 2 2
c258 2 3
c258 2 4
c258 2 5
c258 2 6
c258 2 7
c258 2 8
c258 2 9
c258 4 0
c258 4 1
c258 4 2
c258 4 3
c258 4 4
c258 4 5
c258 4 6
c258 4 7
c258 4 8
c258 4 9
c260 0 8
c260 0 9
c260 1 8
c260 1 9
c260 2 8
c260 2 9
c260 3 8
c260 3 9
c260 4 0
c260 4 1
c260 4 2
c260 4 3
c260 4 4
c260 4 5
c260 4 6
c260 4 7
c260 4 8
c260 4 9
c261 0 0
c261 0 1
c261 0 2
c261 0 3
c261 0 4
c261 0 5
c261 1 0
c261 1 1
c261 2 0
c261 2 1
c261 3 0
c261 3 1
c261 4 0
c261 4 1
c261 4 2
c261 4 3
c261 4 4
c261 4 5
c262 0 0
c262 0 5
c262 1 0
c262 1 5
c262 2 0
c262 2 1
c262 2 2
c262 2 3
c262 2 4
c262 2 5
c262 2 6
c262 2 7
c262 2 8
c262 2 9
c262 2 10
c262 3 0
c262 3 5
c262 4 0
c262 4 5
c263 0 0
c263 0 1
c263 0 2
c263 0 4
c263 1 0
c263 1 1
c263 2 0
c263 2 1
c263 3 0
c263 3 1
c263 4 0
c263 4 1
c263 4 2
c263 4 3
c263 4 4
c263 4 5
c263 4 7
c263 4 9
c264 0 0
c264 0 1
c264 0 2
c264 0 3
c264 0 4
c264 0 5
c264 1 0
c264 1 1
c264 2 0
c264 2 1
c264 3 0
c264 3 1
c264 4 0
c264 4 1
c264 4 2
c264 4 3
c264 4 4
c264 4 5
c266 0 0
c266 1 0
c266 1 6
c266 1 7
c266 1 8
c266 1 9
c266 2 0
c266 3 0
c266 4 0
c266 4 1
c266 4 2
c266 4 3
c266 4 4
c266 4 5
c266 4 6
c266 4 7
c266 4 8
c266 4 9
c267 0 0
c267 0 1
c267 0 8
c267 0 9
c267 1 0
c267 1 1
c267 1 8
c267 1 9
c267 2 0
c267 2 1
c267 2 8
c267 2 9
c267 3 0
c267 3 1
c267 3 2
c267 3 3
c267 3 4
c267 3 5
c267 3 6
c267 3 7
c267 3 8
c267 3 9
c267 4 0
c267 4 1
c267 4 2
c267 4 3
c267 4 4
c267 4 5
c267 4 6
c267 4 7
c267 4 8
c267 4 9
c269 0 0
c269 0 7
c269 0 8
c269 0 9
c269 1 0
c269 1 8
c269 1 9
c269 2 0
c269 2 8
c269 2 9
c269 3 0
c269 3 7
c269 3 8
c269 3 9
c269 4 0
c269 4 7
c269 4 8
c269 4 9
c270 0 0
c270 0 1
c270 0 2
c270 1 0
c270 1 1
c270 1 2
c270 1 6
c270 1 7
c270 1 8
c270 2 0
c270 2 1
c270 2 2
c270 3 0
c270 3 1
c270 3 2
c270 3 9
c270 4 0
c270 4 1
c271 0 0
c271 0 1
c271 0 6
c271 0 7
c271 0 8
c271 0 9
c271 1 0
c271 1 1
c271 1 6
c271 1 7
c271 1 8
c271 1 9
c271 2 0
c271 2 1
c271 2 6
c271 2 7
c271 2 8
c271 2 9
c271 3 0
c271 3 1
c271 3 2
c271 3 3
c271 3 4
c271 3 5
c271 3 6
c271 3 7
c271 3 8
c271 3 9
c271 4 0
c271 4 1
c271 4 2
c271 4 3
c271 4 4
c271 4 5
c271 4 6
c271 4 7
c271 4 8
c271 4 9
c272 0 0
c272 0 1
c272 0 3
c272 0 5
c272 0 7
c272 1 2
c272 1 4
c272 1 6
c272 2 0
c272 2 2
c272 2 5
c272 3 0
c272 3 2
c272 4 1
c272 4 2
c272 4 5
c272 4 7
c274 0 0
c274 0 1
c274 0 2
c274 0 3
c274 0 4
c274 0 5
c274 0 6
c274 0 7
c274 0 8
c274 0 9
c274 1 0
c274 1 1
c274 2 0
c274 2 1
c274 3 0
c274 3 1
c274 4 0
c274 4 1
c275 0 0
c275 0 1
c275 0 2
c275 0 3
c275 0 4
c275 0 5
c275 0 6
c275 1 0
c275 2 0
c275 3 0
c275 4 0
c275 4 4
c275 4 5
c275 4 6
c275 4 7
c275 4 8
c275 4 9
c277 0 3
c277 0 4
c277 0 5
c277 0 6
c277 0 7
c277 0 8
c277 0 9
c277 1 3
c277 1 4
c277 1 5
c277 1 6
c277 1 7
c277 1 8
c277 1 9
c277 2 2
c277 2 3
c277 2 4
c277 2 5
c277 2 6
c277 2 7
c277 2 8
c277 2 9
c277 3 0
c277 3 1
c277 3 2
c277 3 3
c277 3 4
c277 3 5
c277 3 6
c277 3 7
c277 3 8
c277 3 9
c277 4 0
c277 4 1
c277 4 2
c277 4 3
c277 4 4
c277 4 5
c277 4 6
c277 4 7
c277 4 8
c277 4 9
c278 0 0
c278 0 1
c278 0 2
c278 0 3
c278 0 4
c278 0 5
c278 0 6
c278 0 7
c278 0 8
c278 0 9
c278 1 0
c278 1 1
c278 2 0
c278 2 1
c278 3 0
c278 3 1
c278 4 0
c278 4 1
c279 0 8
c279 0 9
c279 1 8
c279 1 9
c279 2 8
c279 2 9
c279 3 0
c279 3 1
c279 3 2
c279 3 3
c279 3 4
c279 3 5
c279 3 6
c279 3 7
c279 3 8
c279 3 9
c279 4 0
c279 4 1
c279 4 2
c279 4 3
c279 4 4
c279 4 5
c279 4 6
c279 4 7
c279 4 8
c279 4 9
c282 0 4
c282 0 5
c282 0 6
c282 1 4
c282 1 5
c282 1 6
c282 2 4
c282 2 5
c282 2 6
c282 3 4
c282 3 5
c282 3 6
c282 4 4
c282 4 5
c282 4 6
cU2 0 8
cU2 0 9
cU2 0 10
cU2 1 8
cU2 1 9
cU2 1 10
cU2 2 8
cU2 2 9
cU2 2 10
cU2 3 0
cU2 3 1
cU2 3 2
cU2 3 3
cU2 3 4
cU2 3 5
cU2 3 6
cU2 3 7
cU2 3 8
cU2 3 9
cU2 3 10
cU2 4 0
cU2 4 1
cU2 4 2
cU2 4 3
cU2 4 4
cU2 4 5
cU2 4 6
cU2 4 7
cU2 4 8
cU2 4 9
cU2 4 10
c284 1 5
c284 1 6
c284 1 7
c284 1 8
c284 1 9
c284 2 5
c284 2 6
c284 2 7
c284 2 8
c284 2 9
c284 3 5
c284 3 6
c284 3 7
c284 3 8
c284 3 9
c284 4 0
c284 4 1
c284 4 2
c284 4 3
c284 4 4
c284 4 5
c284 4 6
c284 4 7
c284 4 8
c284 4 9
c285 0 4
c285 0 5
c285 0 8
c285 0 9
c285 1 4
c285 1 5
c285 1 8
c285 1 9
c285 2 4
c285 2 5
c285 2 8
c285 2 9
c285 3 0
c285 3 1
c285 3 2
c285 3 3
c285 3 4
c285 3 5
c285 3 6
c285 3 7
c285 3 8
c285 3 9
c285 4 0
c285 4 1
c285 4 2
c285 4 3
c285 4 4
c285 4 5
c285 4 6
c285 4 7
c285 4 8
c285 4 9
c286 0 6
c286 0 7
c286 0 8
c286 0 9
c286 1 0
c286 1 1
c286 1 2
c286 1 3
c286 1 4
c286 1 5
c286 1 6
c286 1 7
c286 1 8
c286 1 9
c286 3 6
c286 3 7
c286 3 8
c286 3 9
c286 4 3
c286 4 4
c286 4 5
c286 4 6
c286 4 7
c286 4 8
c286 4 9
c287 0 0
c287 0 9
c287 0 10
c287 1 0
c287 1 9
c287 1 10
c287 2 0
c287 2 9
c287 2 10
c287 3 0
c287 3 1
c287 3 2
c287 3 3
c287 3 9
c287 3 10
c287 4 0
c287 4 9
c287 4 10
c288 0 0
c288 0 1
c288 0 2
c288 0 3
c288 0 9
c288 1 0
c288 1 9
c288 2 0
c288 2 6
c288 2 7
c288 2 8
c288 2 9
c288 3 0
c288 3 1
c288 3 2
c288 3 3
c288 3 4
c288 3 5
c288 3 6
c288 3 7
c288 3 8
c288 3 9
c288 4 0
c288 4 9
c289 0 0
c289 0 1
c289 0 2
c289 0 3
c289 0 4
c289 0 5
c289 0 6
c289 0 7
c289 0 8
c289 0 9
c289 1 9
c289 2 9
c289 3 9
c289 4 5
c289 4 6
c289 4 7
c289 4 8
c289 4 9
c291 0 0
c291 0 1
c291 0 2
c291 0 3
c291 0 4
c291 0 5
c291 0 6
c291 0 7
c291 1 0
c291 1 1
c291 1 2
c291 1 3
c291 2 0
c291 2 1
c291 2 2
c291 2 3
c291 3 0
c291 3 1
c292 0 0
c292 0 1
c292 0 2
c292 0 3
c292 0 4
c292 0 5
c292 0 6
c292 0 7
c292 0 8
c292 0 9
c292 1 0
c292 1 1
c292 1 2
c292 1 3
c292 1 4
c292 1 5
c292 1 6
c292 1 7
c292 1 8
c292 1 9
c292 2 0
c292 2 1
c292 2 2
c292 2 3
c292 2 4
c292 2 5
c292 2 6
c292 2 7
c292 2 8
c292 2 9
c293 0 5
c293 0 6
c293 0 7
c293 0 8
c293 0 9
c293 4 0
c293 4 1
c293 4 2
c293 4 3
c293 4 4
c293 4 5
c294 0 4
c294 0 5
c294 0 8
c294 0 9
c294 1 4
c294 1 5
c294 1 8
c294 1 9
c294 2 4
c294 2 5
c294 2 8
c294 2 9
c294 3 0
c294 3 1
c294 3 2
c294 3 3
c294 3 4
c294 3 5
c294 3 6
c294 3 7
c294 3 8
c294 3 9
c294 4 0
c294 4 1
c294 4 2
c294 4 3
c294 4 4
c294 4 5
c294 4 6
c294 4 7
c294 4 8
c294 4 9
c295 0 0
c295 0 1
c295 0 8
c295 0 9
c295 1 0
c295 1 1
c295 1 8
c295 1 9
c295 2 0
c295 2 1
c295 2 8
c295 2 9
c295 3 0
c295 3 1
c295 3 2
c295 3 3
c295 3 4
c295 3 5
c295 3 6
c295 3 7
c295 3 8
c295 3 9
c295 4 0
c295 4 1
c295 4 2
c295 4 3
c295 4 4
c295 4 5
c295 4 6
c295 4 7
c295 4 8
c295 4 9
c296 4 0
c296 4 1
c296 4 2
c296 4 3
c296 4 4
c296 4 5
c296 4 6
c296 4 7
c296 4 8
c296 4 9
c297 2 0
c297 2 1
c297 2 2
c297 2 3
c297 2 4
c297 2 5
c297 2 6
c297 2 7
c297 2 8
c297 2 9
c297 3 0
c297 3 1
c297 3 2
c297 3 3
c297 3 4
c297 3 5
c297 3 6
c297 3 7
c297 3 8
c297 3 9
c297 4 0
c297 4 1
c297 4 2
c297 4 3
c297 4 4
c297 4 5
c297 4 6
c297 4 7
c297 4 8
c297 4 9
c298 1 5
c298 1 6
c298 2 5
c298 2 6
c298 2 7
c298 2 8
c298 2 9
c298 3 5
c298 3 6
c298 3 7
c298 3 8
c298 3 9
c298 4 0
c298 4 1
c298 4 2
c298 4 3
c298 4 4
c298 4 5
c299 0 0
c299 1 0
c299 2 0
c299 2 7
c299 2 8
c299 2 9
c299 3 0
c299 4 0
c300 0 0
c300 0 8
c300 0 9
c300 1 9
c300 2 9
c300 3 8
c300 3 9
c300 4 9
c301 0 0
c301 0 1
c301 0 2
c301 0 3
c301 0 4
c301 4 0
c301 4 1
c301 4 2
c301 4 3
c301 4 4
c301 4 5
c301 4 6
c301 4 7
c303 0 2
c303 0 3
c303 0 4
c303 0 5
c303 0 6
c303 0 7
c303 0 8
c303 0 9
c303 1 2
c303 1 3
c303 1 4
c303 1 5
c303 1 6
c303 1 7
c303 1 8
c303 1 9
c303 2 2
c303 2 3
c303 2 4
c303 2 5
c303 2 6
c303 2 7
c303 2 8
c303 2 9
c303 3 2
c303 3 3
c303 3 4
c303 3 5
c303 3 6
c303 3 7
c303 3 8
c303 3 9
c303 4 2
c303 4 3
c303 4 4
c303 4 5
c303 4 6
c303 4 7
c303 4 8
c303 4 9
c304 0 0
c304 0 8
c304 0 9
c304 1 9
c304 2 9
c304 3 8
c304 3 9
c304 4 9
c305 0 6
c305 0 7
c305 0 8
c305 0 9
c305 1 6
c305 1 7
c305 1 8
c305 1 9
c305 2 6
c305 2 7
c305 2 8
c305 2 9
c305 3 0
c305 3 1
c305 3 2
c305 3 3
c305 3 4
c305 3 5
c305 3 6
c305 3 7
c305 3 8
c305 3 9
c305 4 0
c305 4 1
c305 4 2
c305 4 3
c305 4 4
c305 4 5
c305 4 6
c305 4 7
c305 4 8
c305 4 9
c306 0 0
c306 0 1
c306 0 2
c306 0 3
c306 0 4
c306 0 5
c306 0 6
c306 0 7
c306 0 8
c306 0 9
c306 1 0
c306 1 1
c306 1 2
c306 1 3
c306 1 4
c306 1 5
c306 1 6
c306 2 0
c306 2 1
c306 2 2
c306 2 3
c306 2 4
c306 2 5
c306 2 6
c306 3 0
c306 3 1
c306 3 2
c306 3 3
c306 3 4
c306 3 5
c306 3 6
c306 3 7
c306 3 8
c306 3 9
c306 4 0
c306 4 1
c306 4 2
c306 4 3
c306 4 4
c306 4 5
c306 4 6
c306 4 7
c306 4 8
c306 4 9
c307 0 0
c307 0 1
c307 0 2
c307 0 3
c307 0 4
c307 0 5
c307 0 6
c307 1 0
c307 2 0
c307 3 0
c307 4 0
c307 4 4
c307 4 5
c307 4 6
c307 4 7
c307 4 8
c307 4 9
c308 0 0
c308 0 1
c308 0 2
c308 2 7
c308 2 8
c308 2 9
c308 3 0
c308 3 1
c308 3 2
c308 3 3
c308 3 4
c308 3 5
c308 3 6
c308 3 7
c308 3 8
c308 3 9
c308 4 0
c308 4 1
c308 4 2
c308 4 3
c308 4 4
c308 4 5
c308 4 6
c308 4 7
c308 4 8
c308 4 9
c309 0 0
c309 0 1
c309 0 2
c309 2 7
c309 2 8
c309 2 9
c309 3 0
c309 3 1
c309 3 2
c309 3 3
c309 3 4
c309 3 5
c309 3 6
c309 3 7
c309 3 8
c309 3 9
c309 4 0
c309 4 1
c309 4 2
c309 4 3
c309 4 4
c309 4 5
c309 4 6
c309 4 7
c309 4 8
c309 4 9
c310 0 5
c310 0 10
c310 1 5
c310 1 10
c310 2 5
c310 2 10
c310 3 5
c310 3 10
c310 4 5
c310 4 10
c312 0 0
c312 0 1
c312 0 6
c312 0 7
c312 1 0
c312 1 1
c312 1 6
c312 1 7
c312 2 0
c312 2 1
c312 2 6
c312 2 7
c312 3 0
c312 3 1
c312 3 2
c312 3 3
c312 3 4
c312 3 5
c312 3 6
c312 3 7
c312 3 8
c312 3 9
c312 4 0
c312 4 1
c312 4 2
c312 4 3
c312 4 4
c312 4 5
c312 4 6
c312 4 7
c312 4 8
c312 4 9
c313 0 9
c313 0 10
c313 1 9
c313 1 10
c313 2 9
c313 2 10
c313 3 9
c313 3 10
c313 4 9
c313 4 10
c314 0 4
c314 1 4
c314 2 4
c314 3 4
c314 4 4
c315 0 7
c315 0 8
c315 0 9
c315 1 7
c315 1 8
c315 1 9
c315 2 7
c315 2 8
c315 2 9
c315 3 4
c315 3 5
c315 3 6
c315 3 7
c315 3 8
c315 3 9
c315 4 7
c315 4 8
c315 4 9
c1647 0 0
c1647 0 1
c1647 0 8
c1647 0 9
c1647 1 0
c1647 1 1
c1647 1 8
c1647 1 9
c1647 2 0
c1647 2 1
c1647 2 8
c1647 2 9
c1647 3 0
c1647 3 1
c1647 3 8
c1647 3 9
c1647 4 0
c1647 4 1
c1647 4 8
c1647 4 9
c1648 0 0
c1648 0 1
c1648 0 8
c1648 0 9
c1648 1 0
c1648 1 1
c1648 1 2
c1648 1 3
c1648 1 4
c1648 1 5
c1648 1 6
c1648 1 7
c1648 1 8
c1648 1 9
c1648 2 0
c1648 2 1
c1648 2 8
c1648 2 9
c1648 3 0
c1648 3 1
c1648 3 2
c1648 3 3
c1648 3 4
c1648 3 5
c1648 3 6
c1648 3 7
c1648 3 8
c1648 3 9
c1648 4 0
c1648 4 1
c1648 4 2
c1648 4 3
c1648 4 4
c1648 4 5
c1648 4 6
c1648 4 7
c1648 4 8
c1648 4 9
c1649 0 0
c1649 0 1
c1649 0 8
c1649 0 9
c1649 1 0
c1649 1 1
c1649 1 2
c1649 1 3
c1649 1 4
c1649 1 5
c1649 1 6
c1649 1 7
c1649 1 8
c1649 1 9
c1649 2 0
c1649 2 1
c1649 2 8
c1649 2 9
c1649 3 0
c1649 3 1
c1649 3 2
c1649 3 3
c1649 3 4
c1649 3 5
c1649 3 6
c1649 3 7
c1649 3 8
c1649 3 9
c1649 4 0
c1649 4 1
c1649 4 2
c1649 4 3
c1649 4 4
c1649 4 5
c1649 4 6
c1649 4 7
c1649 4 8
c1649 4 9
c1650 0 0
c1650 0 1
c1650 0 8
c1650 0 9
c1650 1 0
c1650 1 1
c1650 1 2
c1650 1 3
c1650 1 4
c1650 1 5
c1650 1 6
c1650 1 7
c1650 1 8
c1650 1 9
c1650 2 0
c1650 2 1
c1650 2 8
c1650 2 9
c1650 3 0
c1650 3 1
c1650 3 2
c1650 3 3
c1650 3 4
c1650 3 5
c1650 3 6
c1650 3 7
c1650 3 8
c1650 3 9
c1650 4 0
c1650 4 1
c1650 4 2
c1650 4 3
c1650 4 4
c1650 4 5
c1650 4 6
c1650 4 7
c1650 4 8
c1650 4 9
c1651 2 2
c1651 2 3
c1651 2 4
c1651 2 5
c1651 2 6
c1651 2 7
c1651 2 8
c1651 2 9
c1651 4 0
c1651 4 1
c1651 4 2
c1651 4 3
c1651 4 4
c1651 4 5
c1651 4 6
c1651 4 7
c1651 4 8
c1651 4 9

END.
